%Scalars
Students=40;
Disciplines=12;
Hospitals=4;
Duration=4;
Horizon=24;
Groups=2;
MaxDiscPerHosp=12;
%Data structures
DiscGroup = [1,1,1,1,1,1,2,2,2,2,2,2];

StudDiscGroup =[|
3, 2 |
2, 3 |
1, 4 |
4, 1 |
3, 0 |
3, 0 |
4, 1 |
2, 3 |
3, 1 |
3, 2 |
3, 2 |
4, 1 |
0, 1 |
1, 4 |
3, 2 |
3, 2 |
3, 2 |
4, 1 |
1, 4 |
3, 2 |
4, 1 |
3, 2 |
3, 2 |
2, 1 |
2, 3 |
3, 2 |
2, 3 |
2, 3 |
4, 1 |
3, 2 |
3, 2 |
3, 2 |
2, 3 |
2, 3 |
4, 0 |
4, 1 |
2, 1 |
3, 2 |
3, 1 |
3, 2 |];

AllowedDisc =[|
0, 0, 0, 1, 1, 1, 1, 1, 1, 1, 1, 1 |
1, 1, 0, 0, 1, 0, 1, 0, 0, 1, 1, 1 |
0, 0, 0, 0, 1, 1, 1, 1, 0, 1, 1, 1 |
1, 1, 1, 1, 1, 0, 0, 0, 0, 0, 0, 1 |
0, 0, 0, 1, 1, 1, 1, 1, 1, 1, 1, 1 |
1, 0, 1, 1, 1, 1, 0, 0, 1, 1, 0, 0 |
1, 1, 0, 1, 1, 1, 0, 0, 1, 1, 1, 1 |
1, 0, 0, 1, 1, 1, 1, 1, 1, 1, 0, 1 |
0, 0, 0, 1, 1, 1, 0, 1, 1, 1, 1, 1 |
1, 0, 0, 1, 1, 0, 1, 1, 1, 1, 1, 1 |
1, 0, 0, 1, 1, 1, 1, 0, 1, 1, 1, 1 |
1, 0, 0, 1, 1, 1, 1, 1, 1, 0, 1, 1 |
0, 0, 1, 1, 0, 0, 1, 0, 0, 0, 0, 1 |
0, 0, 0, 1, 0, 0, 1, 1, 1, 0, 0, 1 |
0, 0, 0, 1, 1, 1, 1, 1, 1, 0, 0, 1 |
1, 0, 1, 1, 1, 0, 1, 0, 0, 0, 1, 1 |
1, 1, 0, 1, 1, 0, 1, 1, 0, 0, 1, 0 |
1, 1, 0, 1, 0, 1, 1, 0, 1, 1, 0, 1 |
0, 0, 0, 0, 0, 1, 1, 1, 0, 0, 1, 1 |
0, 1, 0, 1, 1, 1, 1, 0, 0, 0, 0, 1 |
1, 1, 0, 1, 0, 1, 0, 1, 0, 0, 1, 1 |
0, 0, 0, 1, 1, 1, 0, 0, 1, 0, 1, 1 |
1, 0, 1, 1, 1, 1, 1, 1, 0, 1, 1, 0 |
1, 0, 0, 1, 1, 1, 0, 0, 1, 0, 1, 0 |
0, 0, 0, 1, 0, 1, 1, 1, 0, 0, 0, 1 |
1, 1, 0, 1, 1, 1, 1, 1, 1, 1, 1, 1 |
1, 0, 0, 0, 0, 1, 1, 1, 0, 1, 0, 1 |
1, 0, 0, 0, 0, 1, 1, 1, 0, 1, 1, 1 |
1, 1, 0, 1, 1, 1, 1, 1, 0, 0, 1, 1 |
1, 0, 0, 1, 1, 0, 1, 1, 1, 1, 0, 0 |
1, 0, 0, 1, 1, 0, 0, 1, 1, 1, 1, 1 |
1, 1, 1, 1, 0, 1, 0, 0, 1, 1, 1, 1 |
0, 0, 0, 0, 1, 1, 1, 1, 1, 1, 1, 1 |
0, 0, 0, 1, 1, 0, 1, 0, 0, 1, 1, 1 |
1, 0, 1, 1, 1, 1, 0, 1, 1, 0, 1, 0 |
1, 1, 1, 0, 1, 0, 0, 0, 0, 0, 0, 1 |
1, 1, 0, 1, 1, 0, 0, 1, 0, 0, 1, 1 |
0, 1, 1, 1, 1, 1, 0, 0, 1, 0, 1, 1 |
1, 1, 0, 1, 1, 1, 1, 0, 0, 0, 1, 1 |
1, 1, 0, 1, 1, 0, 1, 0, 1, 1, 1, 1 |];

Precededby =[|
0, 0, 0, 0, 0, 0, 0, 0, 0, 0, 0, 0 |
1, 0, 0, 0, 0, 0, 0, 0, 0, 0, 0, 0 |
1, 1, 0, 0, 0, 0, 0, 0, 0, 0, 0, 0 |
0, 0, 0, 0, 0, 0, 0, 0, 0, 0, 0, 0 |
0, 0, 0, 0, 0, 0, 0, 0, 0, 0, 0, 0 |
0, 0, 0, 0, 0, 0, 0, 0, 0, 0, 0, 0 |
0, 0, 0, 0, 0, 0, 0, 0, 0, 0, 0, 0 |
0, 0, 0, 0, 0, 0, 1, 0, 0, 0, 0, 0 |
0, 0, 0, 0, 0, 0, 1, 1, 0, 0, 0, 0 |
0, 0, 0, 0, 0, 0, 1, 1, 1, 0, 0, 0 |
0, 0, 0, 0, 0, 0, 0, 0, 0, 0, 0, 0 |
0, 0, 0, 0, 0, 0, 0, 0, 0, 0, 0, 0 |];

Availability =[|
1, 1, 1, 1, 1, 1, 1, 1, 1, 1, 1, 1, 1, 1, 1, 1, 1, 1, 1, 1, 0, 0, 0, 0 |
1, 1, 1, 1, 1, 1, 1, 1, 1, 1, 1, 1, 1, 1, 1, 1, 1, 1, 1, 1, 1, 1, 1, 0 |
1, 1, 1, 1, 1, 1, 1, 1, 1, 1, 1, 1, 1, 1, 1, 1, 1, 1, 1, 1, 0, 0, 0, 0 |
1, 1, 1, 1, 1, 1, 1, 1, 1, 1, 1, 1, 1, 1, 1, 1, 1, 1, 1, 1, 0, 0, 0, 0 |
1, 1, 1, 1, 1, 1, 1, 1, 1, 1, 1, 1, 0, 0, 0, 1, 0, 0, 0, 0, 0, 0, 1, 0 |
1, 1, 1, 1, 1, 1, 1, 1, 1, 1, 1, 1, 0, 0, 0, 1, 0, 0, 0, 0, 1, 0, 0, 0 |
1, 1, 1, 1, 1, 1, 1, 1, 1, 1, 1, 1, 1, 1, 1, 1, 1, 1, 1, 1, 0, 0, 0, 1 |
1, 1, 1, 1, 1, 1, 1, 1, 1, 1, 1, 1, 1, 1, 1, 1, 1, 1, 1, 1, 0, 0, 0, 1 |
1, 1, 1, 1, 1, 1, 1, 1, 1, 1, 1, 1, 1, 1, 1, 1, 0, 0, 0, 0, 0, 0, 0, 0 |
1, 1, 1, 1, 1, 1, 1, 1, 1, 1, 1, 1, 1, 1, 1, 1, 1, 1, 1, 1, 1, 1, 1, 1 |
1, 1, 1, 1, 1, 1, 1, 1, 1, 1, 1, 1, 1, 1, 1, 1, 1, 1, 1, 1, 0, 0, 0, 0 |
1, 1, 1, 1, 1, 1, 1, 1, 1, 1, 1, 1, 1, 1, 1, 1, 1, 1, 1, 1, 1, 1, 1, 1 |
1, 1, 1, 1, 1, 1, 1, 1, 1, 1, 1, 1, 0, 0, 0, 0, 0, 0, 0, 0, 1, 0, 0, 0 |
1, 1, 1, 1, 1, 1, 1, 1, 1, 1, 1, 1, 1, 1, 1, 1, 1, 1, 1, 1, 0, 0, 0, 0 |
1, 1, 1, 1, 1, 1, 1, 1, 1, 1, 1, 1, 1, 1, 1, 1, 1, 1, 1, 1, 0, 0, 0, 0 |
1, 1, 1, 1, 1, 1, 1, 1, 1, 1, 1, 1, 1, 1, 1, 1, 1, 1, 1, 1, 0, 0, 0, 0 |
1, 1, 1, 1, 1, 1, 1, 1, 1, 1, 1, 1, 1, 1, 1, 1, 1, 1, 1, 1, 0, 0, 0, 0 |
1, 1, 1, 1, 1, 1, 1, 1, 1, 1, 1, 1, 1, 1, 1, 1, 1, 1, 1, 1, 0, 0, 0, 0 |
1, 1, 1, 1, 1, 1, 1, 1, 1, 1, 1, 1, 1, 1, 1, 1, 1, 1, 1, 1, 0, 0, 0, 1 |
1, 1, 1, 1, 1, 1, 1, 1, 1, 1, 1, 1, 1, 1, 1, 1, 1, 1, 1, 1, 0, 0, 0, 0 |
1, 1, 1, 1, 1, 1, 1, 1, 1, 1, 1, 1, 1, 1, 1, 1, 1, 1, 1, 1, 1, 1, 1, 0 |
1, 1, 1, 1, 1, 1, 1, 1, 1, 1, 1, 1, 1, 1, 1, 1, 1, 1, 1, 1, 0, 0, 0, 0 |
1, 1, 1, 1, 1, 1, 1, 1, 1, 1, 1, 1, 1, 1, 1, 1, 1, 1, 1, 1, 1, 1, 1, 0 |
1, 1, 1, 1, 1, 1, 1, 1, 1, 1, 1, 1, 1, 1, 1, 0, 0, 0, 1, 0, 0, 0, 0, 0 |
1, 1, 1, 1, 1, 1, 1, 1, 1, 1, 1, 1, 1, 1, 1, 1, 1, 1, 1, 1, 1, 1, 1, 1 |
1, 1, 1, 1, 1, 1, 1, 1, 1, 1, 1, 1, 1, 1, 1, 1, 1, 1, 1, 1, 0, 0, 0, 1 |
1, 1, 1, 1, 1, 1, 1, 1, 1, 1, 1, 1, 1, 1, 1, 1, 1, 1, 1, 1, 0, 0, 0, 1 |
1, 1, 1, 1, 1, 1, 1, 1, 1, 1, 1, 1, 1, 1, 1, 1, 1, 1, 1, 1, 0, 0, 0, 0 |
1, 1, 1, 1, 1, 1, 1, 1, 1, 1, 1, 1, 1, 1, 1, 1, 1, 1, 1, 1, 0, 0, 0, 0 |
1, 1, 1, 1, 1, 1, 1, 1, 1, 1, 1, 1, 1, 1, 1, 1, 1, 1, 1, 1, 0, 0, 0, 0 |
1, 1, 1, 1, 1, 1, 1, 1, 1, 1, 1, 1, 1, 1, 1, 1, 1, 1, 1, 1, 0, 0, 0, 0 |
1, 1, 1, 1, 1, 1, 1, 1, 1, 1, 1, 1, 1, 1, 1, 1, 1, 1, 1, 1, 0, 0, 0, 0 |
1, 1, 1, 1, 1, 1, 1, 1, 1, 1, 1, 1, 1, 1, 1, 1, 1, 1, 1, 1, 0, 0, 0, 0 |
1, 1, 1, 1, 1, 1, 1, 1, 1, 1, 1, 1, 1, 1, 1, 1, 1, 1, 1, 1, 0, 0, 0, 0 |
1, 1, 1, 1, 1, 1, 1, 1, 1, 1, 1, 1, 1, 1, 1, 1, 0, 0, 0, 0, 0, 0, 1, 1 |
1, 1, 1, 1, 1, 1, 1, 1, 1, 1, 1, 1, 1, 1, 1, 1, 1, 1, 1, 1, 0, 0, 0, 0 |
1, 1, 1, 1, 1, 1, 1, 1, 1, 1, 1, 1, 1, 1, 1, 0, 0, 0, 0, 1, 0, 0, 0, 0 |
1, 1, 1, 1, 1, 1, 1, 1, 1, 1, 1, 1, 1, 1, 1, 1, 1, 1, 1, 1, 1, 1, 1, 0 |
1, 1, 1, 1, 1, 1, 1, 1, 1, 1, 1, 1, 1, 1, 1, 1, 0, 0, 0, 0, 0, 0, 1, 0 |
1, 1, 1, 1, 1, 1, 1, 1, 1, 1, 1, 1, 1, 1, 1, 1, 1, 1, 1, 1, 0, 0, 0, 0 |];

Ability =
 array3d(1..Students,1..Hospitals,1..Disciplines,[
1, 1, 1, 1, 1, 1, 1, 1, 1, 1, 1, 1 ,
1, 1, 1, 1, 1, 1, 1, 1, 1, 1, 1, 1 ,
1, 1, 1, 1, 1, 1, 1, 1, 1, 1, 1, 1 ,
1, 1, 1, 1, 1, 1, 1, 1, 1, 1, 1, 1 ,
1, 1, 1, 1, 1, 1, 1, 1, 1, 1, 1, 1 ,
1, 1, 1, 1, 1, 1, 1, 1, 1, 1, 1, 1 ,
1, 1, 1, 1, 1, 1, 1, 1, 1, 1, 1, 1 ,
1, 1, 1, 1, 1, 1, 1, 1, 1, 1, 1, 1 ,
1, 1, 1, 1, 1, 1, 1, 1, 1, 1, 1, 1 ,
1, 1, 1, 1, 1, 1, 1, 1, 1, 1, 1, 1 ,
1, 1, 1, 1, 1, 1, 1, 1, 1, 1, 1, 1 ,
1, 1, 1, 1, 1, 1, 1, 1, 1, 1, 1, 1 ,
1, 1, 1, 1, 1, 1, 1, 1, 1, 1, 1, 1 ,
1, 1, 1, 1, 1, 1, 1, 1, 1, 1, 1, 1 ,
1, 1, 1, 1, 1, 1, 1, 1, 1, 1, 1, 1 ,
1, 1, 1, 1, 1, 1, 1, 1, 1, 1, 1, 1 ,
1, 1, 1, 1, 1, 1, 1, 1, 1, 1, 1, 1 ,
1, 1, 1, 1, 1, 1, 1, 1, 1, 1, 1, 1 ,
1, 1, 1, 1, 1, 1, 1, 1, 1, 1, 1, 1 ,
1, 1, 1, 1, 1, 1, 1, 1, 1, 1, 1, 1 ,
1, 1, 1, 1, 1, 1, 1, 1, 1, 1, 1, 1 ,
1, 1, 1, 1, 1, 1, 1, 1, 1, 1, 1, 1 ,
1, 1, 1, 1, 1, 1, 1, 1, 1, 1, 1, 1 ,
1, 1, 1, 1, 1, 1, 1, 1, 1, 1, 1, 1 ,
1, 1, 1, 1, 1, 1, 1, 1, 1, 1, 1, 1 ,
1, 1, 1, 1, 1, 1, 1, 1, 1, 1, 1, 1 ,
1, 1, 1, 1, 1, 1, 1, 1, 1, 1, 1, 1 ,
1, 1, 1, 1, 1, 1, 1, 1, 1, 1, 1, 1 ,
1, 1, 1, 1, 1, 1, 1, 1, 1, 1, 1, 1 ,
1, 1, 1, 1, 1, 1, 1, 1, 1, 1, 1, 1 ,
1, 1, 1, 1, 1, 1, 1, 1, 1, 1, 1, 1 ,
1, 1, 1, 1, 1, 1, 1, 1, 1, 1, 1, 1 ,
1, 1, 1, 1, 1, 1, 1, 1, 1, 1, 1, 1 ,
1, 1, 1, 1, 1, 1, 1, 1, 1, 1, 1, 1 ,
1, 1, 1, 1, 1, 1, 1, 1, 1, 1, 1, 1 ,
1, 1, 1, 1, 1, 1, 1, 1, 1, 1, 1, 1 ,
1, 1, 1, 1, 1, 1, 1, 1, 1, 1, 1, 1 ,
1, 1, 1, 1, 1, 1, 1, 1, 1, 1, 1, 1 ,
1, 1, 1, 1, 1, 1, 1, 1, 1, 1, 1, 1 ,
1, 1, 1, 1, 1, 1, 1, 1, 1, 1, 1, 1 ,
1, 1, 1, 1, 1, 1, 1, 1, 1, 1, 1, 1 ,
1, 1, 1, 1, 1, 1, 1, 1, 1, 1, 1, 1 ,
1, 1, 1, 1, 1, 1, 1, 1, 1, 1, 1, 1 ,
1, 1, 1, 1, 1, 1, 1, 1, 1, 1, 1, 1 ,
1, 1, 1, 1, 1, 1, 1, 1, 1, 1, 1, 1 ,
1, 1, 1, 1, 1, 1, 1, 1, 1, 1, 1, 1 ,
1, 1, 1, 1, 1, 1, 1, 1, 1, 1, 1, 1 ,
1, 1, 1, 1, 1, 1, 1, 1, 1, 1, 1, 1 ,
1, 1, 1, 1, 1, 1, 1, 1, 1, 1, 1, 1 ,
1, 1, 1, 1, 1, 1, 1, 1, 1, 1, 1, 1 ,
1, 1, 1, 1, 1, 1, 1, 1, 1, 1, 1, 1 ,
1, 1, 1, 1, 1, 1, 1, 1, 1, 1, 1, 1 ,
1, 1, 1, 1, 1, 1, 1, 1, 1, 1, 1, 1 ,
1, 1, 1, 1, 1, 1, 1, 1, 1, 1, 1, 1 ,
1, 1, 1, 1, 1, 1, 1, 1, 1, 1, 1, 1 ,
1, 1, 1, 1, 1, 1, 1, 1, 1, 1, 1, 1 ,
1, 1, 1, 1, 1, 1, 1, 1, 1, 1, 1, 1 ,
1, 1, 1, 1, 1, 1, 1, 1, 1, 1, 1, 1 ,
1, 1, 1, 1, 1, 1, 1, 1, 1, 1, 1, 1 ,
1, 1, 1, 1, 1, 1, 1, 1, 1, 1, 1, 1 ,
1, 1, 1, 1, 1, 1, 1, 1, 1, 1, 1, 1 ,
1, 1, 1, 1, 1, 1, 1, 1, 1, 1, 1, 1 ,
1, 1, 1, 1, 1, 1, 1, 1, 1, 1, 1, 1 ,
1, 1, 1, 1, 1, 1, 1, 1, 1, 1, 1, 1 ,
1, 1, 1, 1, 1, 1, 1, 1, 1, 1, 1, 1 ,
1, 1, 1, 1, 1, 1, 1, 1, 1, 1, 1, 1 ,
1, 1, 1, 1, 1, 1, 1, 1, 1, 1, 1, 1 ,
1, 1, 1, 1, 1, 1, 1, 1, 1, 1, 1, 1 ,
1, 1, 1, 1, 1, 1, 1, 1, 1, 1, 1, 1 ,
1, 1, 1, 1, 1, 1, 1, 1, 1, 1, 1, 1 ,
1, 1, 1, 1, 1, 1, 1, 1, 1, 1, 1, 1 ,
1, 1, 1, 1, 1, 1, 1, 1, 1, 1, 1, 1 ,
1, 1, 1, 1, 1, 1, 1, 1, 1, 1, 1, 1 ,
1, 1, 1, 1, 1, 1, 1, 1, 1, 1, 1, 1 ,
1, 1, 1, 1, 1, 1, 1, 1, 1, 1, 1, 1 ,
1, 1, 1, 1, 1, 1, 1, 1, 1, 1, 1, 1 ,
1, 1, 1, 1, 1, 1, 1, 1, 1, 1, 1, 1 ,
1, 1, 1, 1, 1, 1, 1, 1, 1, 1, 1, 1 ,
1, 1, 1, 1, 1, 1, 1, 1, 1, 1, 1, 1 ,
1, 1, 1, 1, 1, 1, 1, 1, 1, 1, 1, 1 ,
1, 1, 1, 1, 1, 1, 1, 1, 1, 1, 1, 1 ,
1, 1, 1, 1, 1, 1, 1, 1, 1, 1, 1, 1 ,
1, 1, 1, 1, 1, 1, 1, 1, 1, 1, 1, 1 ,
1, 1, 1, 1, 1, 1, 1, 1, 1, 1, 1, 1 ,
1, 1, 1, 1, 1, 1, 1, 1, 1, 1, 1, 1 ,
1, 1, 1, 1, 1, 1, 1, 1, 1, 1, 1, 1 ,
1, 1, 1, 1, 1, 1, 1, 1, 1, 1, 1, 1 ,
1, 1, 1, 1, 1, 1, 1, 1, 1, 1, 1, 1 ,
1, 1, 1, 1, 1, 1, 1, 1, 1, 1, 1, 1 ,
1, 1, 1, 1, 1, 1, 1, 1, 1, 1, 1, 1 ,
1, 1, 1, 1, 1, 1, 1, 1, 1, 1, 1, 1 ,
1, 1, 1, 1, 1, 1, 1, 1, 1, 1, 1, 1 ,
1, 1, 1, 1, 1, 1, 1, 1, 1, 1, 1, 1 ,
1, 1, 1, 1, 1, 1, 1, 1, 1, 1, 1, 1 ,
1, 1, 1, 1, 1, 1, 1, 1, 1, 1, 1, 1 ,
1, 1, 1, 1, 1, 1, 1, 1, 1, 1, 1, 1 ,
1, 1, 1, 1, 1, 1, 1, 1, 1, 1, 1, 1 ,
1, 1, 1, 1, 1, 1, 1, 1, 1, 1, 1, 1 ,
1, 1, 1, 1, 1, 1, 1, 1, 1, 1, 1, 1 ,
1, 1, 1, 1, 1, 1, 1, 1, 1, 1, 1, 1 ,
1, 1, 1, 1, 1, 1, 1, 1, 1, 1, 1, 1 ,
1, 1, 1, 1, 1, 1, 1, 1, 1, 1, 1, 1 ,
1, 1, 1, 1, 1, 1, 1, 1, 1, 1, 1, 1 ,
1, 1, 1, 1, 1, 1, 1, 1, 1, 1, 1, 1 ,
1, 1, 1, 1, 1, 1, 1, 1, 1, 1, 1, 1 ,
1, 1, 1, 1, 1, 1, 1, 1, 1, 1, 1, 1 ,
1, 1, 1, 1, 1, 1, 1, 1, 1, 1, 1, 1 ,
1, 1, 1, 1, 1, 1, 1, 1, 1, 1, 1, 1 ,
1, 1, 1, 1, 1, 1, 1, 1, 1, 1, 1, 1 ,
1, 1, 1, 1, 1, 1, 1, 1, 1, 1, 1, 1 ,
1, 1, 1, 1, 1, 1, 1, 1, 1, 1, 1, 1 ,
1, 1, 1, 1, 1, 1, 1, 1, 1, 1, 1, 1 ,
1, 1, 1, 1, 1, 1, 1, 1, 1, 1, 1, 1 ,
1, 1, 1, 1, 1, 1, 1, 1, 1, 1, 1, 1 ,
1, 1, 1, 1, 1, 1, 1, 1, 1, 1, 1, 1 ,
1, 1, 1, 1, 1, 1, 1, 1, 1, 1, 1, 1 ,
1, 1, 1, 1, 1, 1, 1, 1, 1, 1, 1, 1 ,
1, 1, 1, 1, 1, 1, 1, 1, 1, 1, 1, 1 ,
1, 1, 1, 1, 1, 1, 1, 1, 1, 1, 1, 1 ,
1, 1, 1, 1, 1, 1, 1, 1, 1, 1, 1, 1 ,
1, 1, 1, 1, 1, 1, 1, 1, 1, 1, 1, 1 ,
1, 1, 1, 1, 1, 1, 1, 1, 1, 1, 1, 1 ,
1, 1, 1, 1, 1, 1, 1, 1, 1, 1, 1, 1 ,
1, 1, 1, 1, 1, 1, 1, 1, 1, 1, 1, 1 ,
1, 1, 1, 1, 1, 1, 1, 1, 1, 1, 1, 1 ,
1, 1, 1, 1, 1, 1, 1, 1, 1, 1, 1, 1 ,
1, 1, 1, 1, 1, 1, 1, 1, 1, 1, 1, 1 ,
1, 1, 1, 1, 1, 1, 1, 1, 1, 1, 1, 1 ,
1, 1, 1, 1, 1, 1, 1, 1, 1, 1, 1, 1 ,
1, 1, 1, 1, 1, 1, 1, 1, 1, 1, 1, 1 ,
1, 1, 1, 1, 1, 1, 1, 1, 1, 1, 1, 1 ,
1, 1, 1, 1, 1, 1, 1, 1, 1, 1, 1, 1 ,
1, 1, 1, 1, 1, 1, 1, 1, 1, 1, 1, 1 ,
1, 1, 1, 1, 1, 1, 1, 1, 1, 1, 1, 1 ,
1, 1, 1, 1, 1, 1, 1, 1, 1, 1, 1, 1 ,
1, 1, 1, 1, 1, 1, 1, 1, 1, 1, 1, 1 ,
1, 1, 1, 1, 1, 1, 1, 1, 1, 1, 1, 1 ,
1, 1, 1, 1, 1, 1, 1, 1, 1, 1, 1, 1 ,
1, 1, 1, 1, 1, 1, 1, 1, 1, 1, 1, 1 ,
1, 1, 1, 1, 1, 1, 1, 1, 1, 1, 1, 1 ,
1, 1, 1, 1, 1, 1, 1, 1, 1, 1, 1, 1 ,
1, 1, 1, 1, 1, 1, 1, 1, 1, 1, 1, 1 ,
1, 1, 1, 1, 1, 1, 1, 1, 1, 1, 1, 1 ,
1, 1, 1, 1, 1, 1, 1, 1, 1, 1, 1, 1 ,
1, 1, 1, 1, 1, 1, 1, 1, 1, 1, 1, 1 ,
1, 1, 1, 1, 1, 1, 1, 1, 1, 1, 1, 1 ,
1, 1, 1, 1, 1, 1, 1, 1, 1, 1, 1, 1 ,
1, 1, 1, 1, 1, 1, 1, 1, 1, 1, 1, 1 ,
1, 1, 1, 1, 1, 1, 1, 1, 1, 1, 1, 1 ,
1, 1, 1, 1, 1, 1, 1, 1, 1, 1, 1, 1 ,
1, 1, 1, 1, 1, 1, 1, 1, 1, 1, 1, 1 ,
1, 1, 1, 1, 1, 1, 1, 1, 1, 1, 1, 1 ,
1, 1, 1, 1, 1, 1, 1, 1, 1, 1, 1, 1 ,
1, 1, 1, 1, 1, 1, 1, 1, 1, 1, 1, 1 ,
1, 1, 1, 1, 1, 1, 1, 1, 1, 1, 1, 1 ,
1, 1, 1, 1, 1, 1, 1, 1, 1, 1, 1, 1 ,
1, 1, 1, 1, 1, 1, 1, 1, 1, 1, 1, 1 ,
1, 1, 1, 1, 1, 1, 1, 1, 1, 1, 1, 1 ,
1, 1, 1, 1, 1, 1, 1, 1, 1, 1, 1, 1 ,
1, 1, 1, 1, 1, 1, 1, 1, 1, 1, 1, 1]);

MaxPosHosp =
 array3d(1..Hospitals, 1..Disciplines, 1..Horizon,[
3, 3, 3, 3, 3, 3, 3, 3, 3, 3, 3, 3, 3, 3, 3, 3, 3, 3, 3, 3, 3, 3, 3, 3 ,
4, 4, 4, 4, 4, 4, 4, 4, 4, 4, 4, 4, 4, 4, 4, 4, 4, 4, 4, 4, 4, 4, 4, 4 ,
2, 2, 2, 2, 2, 2, 2, 2, 2, 2, 2, 2, 2, 2, 2, 2, 2, 2, 2, 2, 2, 2, 2, 2 ,
2, 2, 2, 2, 2, 2, 2, 2, 2, 2, 2, 2, 2, 2, 2, 2, 2, 2, 2, 2, 2, 2, 2, 2 ,
4, 4, 4, 4, 4, 4, 4, 4, 4, 4, 4, 4, 4, 4, 4, 4, 4, 4, 4, 4, 4, 4, 4, 4 ,
2, 2, 2, 2, 2, 2, 2, 2, 2, 2, 2, 2, 2, 2, 2, 2, 2, 2, 2, 2, 2, 2, 2, 2 ,
4, 4, 4, 4, 4, 4, 4, 4, 4, 4, 4, 4, 4, 4, 4, 4, 4, 4, 4, 4, 4, 4, 4, 4 ,
3, 3, 3, 3, 3, 3, 3, 3, 3, 3, 3, 3, 3, 3, 3, 3, 3, 3, 3, 3, 3, 3, 3, 3 ,
4, 4, 4, 4, 4, 4, 4, 4, 4, 4, 4, 4, 4, 4, 4, 4, 4, 4, 4, 4, 4, 4, 4, 4 ,
4, 4, 4, 4, 4, 4, 4, 4, 4, 4, 4, 4, 4, 4, 4, 4, 4, 4, 4, 4, 4, 4, 4, 4 ,
2, 2, 2, 2, 2, 2, 2, 2, 2, 2, 2, 2, 2, 2, 2, 2, 2, 2, 2, 2, 2, 2, 2, 2 ,
4, 4, 4, 4, 4, 4, 4, 4, 4, 4, 4, 4, 4, 4, 4, 4, 4, 4, 4, 4, 4, 4, 4, 4 ,
3, 3, 3, 3, 3, 3, 3, 3, 3, 3, 3, 3, 3, 3, 3, 3, 3, 3, 3, 3, 3, 3, 3, 3 ,
2, 2, 2, 2, 2, 2, 2, 2, 2, 2, 2, 2, 2, 2, 2, 2, 2, 2, 2, 2, 2, 2, 2, 2 ,
4, 4, 4, 4, 4, 4, 4, 4, 4, 4, 4, 4, 4, 4, 4, 4, 4, 4, 4, 4, 4, 4, 4, 4 ,
2, 2, 2, 2, 2, 2, 2, 2, 2, 2, 2, 2, 2, 2, 2, 2, 2, 2, 2, 2, 2, 2, 2, 2 ,
2, 2, 2, 2, 2, 2, 2, 2, 2, 2, 2, 2, 2, 2, 2, 2, 2, 2, 2, 2, 2, 2, 2, 2 ,
4, 4, 4, 4, 4, 4, 4, 4, 4, 4, 4, 4, 4, 4, 4, 4, 4, 4, 4, 4, 4, 4, 4, 4 ,
4, 4, 4, 4, 4, 4, 4, 4, 4, 4, 4, 4, 4, 4, 4, 4, 4, 4, 4, 4, 4, 4, 4, 4 ,
2, 2, 2, 2, 2, 2, 2, 2, 2, 2, 2, 2, 2, 2, 2, 2, 2, 2, 2, 2, 2, 2, 2, 2 ,
4, 4, 4, 4, 4, 4, 4, 4, 4, 4, 4, 4, 4, 4, 4, 4, 4, 4, 4, 4, 4, 4, 4, 4 ,
3, 3, 3, 3, 3, 3, 3, 3, 3, 3, 3, 3, 3, 3, 3, 3, 3, 3, 3, 3, 3, 3, 3, 3 ,
3, 3, 3, 3, 3, 3, 3, 3, 3, 3, 3, 3, 3, 3, 3, 3, 3, 3, 3, 3, 3, 3, 3, 3 ,
3, 3, 3, 3, 3, 3, 3, 3, 3, 3, 3, 3, 3, 3, 3, 3, 3, 3, 3, 3, 3, 3, 3, 3 ,
3, 3, 3, 3, 3, 3, 3, 3, 3, 3, 3, 3, 3, 3, 3, 3, 3, 3, 3, 3, 3, 3, 3, 3 ,
3, 3, 3, 3, 3, 3, 3, 3, 3, 3, 3, 3, 3, 3, 3, 3, 3, 3, 3, 3, 3, 3, 3, 3 ,
3, 3, 3, 3, 3, 3, 3, 3, 3, 3, 3, 3, 3, 3, 3, 3, 3, 3, 3, 3, 3, 3, 3, 3 ,
2, 2, 2, 2, 2, 2, 2, 2, 2, 2, 2, 2, 2, 2, 2, 2, 2, 2, 2, 2, 2, 2, 2, 2 ,
3, 3, 3, 3, 3, 3, 3, 3, 3, 3, 3, 3, 3, 3, 3, 3, 3, 3, 3, 3, 3, 3, 3, 3 ,
4, 4, 4, 4, 4, 4, 4, 4, 4, 4, 4, 4, 4, 4, 4, 4, 4, 4, 4, 4, 4, 4, 4, 4 ,
4, 4, 4, 4, 4, 4, 4, 4, 4, 4, 4, 4, 4, 4, 4, 4, 4, 4, 4, 4, 4, 4, 4, 4 ,
3, 3, 3, 3, 3, 3, 3, 3, 3, 3, 3, 3, 3, 3, 3, 3, 3, 3, 3, 3, 3, 3, 3, 3 ,
2, 2, 2, 2, 2, 2, 2, 2, 2, 2, 2, 2, 2, 2, 2, 2, 2, 2, 2, 2, 2, 2, 2, 2 ,
2, 2, 2, 2, 2, 2, 2, 2, 2, 2, 2, 2, 2, 2, 2, 2, 2, 2, 2, 2, 2, 2, 2, 2 ,
4, 4, 4, 4, 4, 4, 4, 4, 4, 4, 4, 4, 4, 4, 4, 4, 4, 4, 4, 4, 4, 4, 4, 4 ,
4, 4, 4, 4, 4, 4, 4, 4, 4, 4, 4, 4, 4, 4, 4, 4, 4, 4, 4, 4, 4, 4, 4, 4 ,
2, 2, 2, 2, 2, 2, 2, 2, 2, 2, 2, 2, 2, 2, 2, 2, 2, 2, 2, 2, 2, 2, 2, 2 ,
3, 3, 3, 3, 3, 3, 3, 3, 3, 3, 3, 3, 3, 3, 3, 3, 3, 3, 3, 3, 3, 3, 3, 3 ,
4, 4, 4, 4, 4, 4, 4, 4, 4, 4, 4, 4, 4, 4, 4, 4, 4, 4, 4, 4, 4, 4, 4, 4 ,
3, 3, 3, 3, 3, 3, 3, 3, 3, 3, 3, 3, 3, 3, 3, 3, 3, 3, 3, 3, 3, 3, 3, 3 ,
3, 3, 3, 3, 3, 3, 3, 3, 3, 3, 3, 3, 3, 3, 3, 3, 3, 3, 3, 3, 3, 3, 3, 3 ,
3, 3, 3, 3, 3, 3, 3, 3, 3, 3, 3, 3, 3, 3, 3, 3, 3, 3, 3, 3, 3, 3, 3, 3 ,
3, 3, 3, 3, 3, 3, 3, 3, 3, 3, 3, 3, 3, 3, 3, 3, 3, 3, 3, 3, 3, 3, 3, 3 ,
2, 2, 2, 2, 2, 2, 2, 2, 2, 2, 2, 2, 2, 2, 2, 2, 2, 2, 2, 2, 2, 2, 2, 2 ,
2, 2, 2, 2, 2, 2, 2, 2, 2, 2, 2, 2, 2, 2, 2, 2, 2, 2, 2, 2, 2, 2, 2, 2 ,
2, 2, 2, 2, 2, 2, 2, 2, 2, 2, 2, 2, 2, 2, 2, 2, 2, 2, 2, 2, 2, 2, 2, 2 ,
4, 4, 4, 4, 4, 4, 4, 4, 4, 4, 4, 4, 4, 4, 4, 4, 4, 4, 4, 4, 4, 4, 4, 4 ,
3, 3, 3, 3, 3, 3, 3, 3, 3, 3, 3, 3, 3, 3, 3, 3, 3, 3, 3, 3, 3, 3, 3, 3]);

MinPosHosp =
 array3d(1..Hospitals, 1..Disciplines, 1..Horizon,[
0, 0, 0, 0, 0, 0, 0, 0, 0, 0, 0, 0, 0, 0, 0, 0, 0, 0, 0, 0, 0, 0, 0, 0 ,
0, 0, 0, 0, 0, 0, 0, 0, 0, 0, 0, 0, 0, 0, 0, 0, 0, 0, 0, 0, 0, 0, 0, 0 ,
0, 0, 0, 0, 0, 0, 0, 0, 0, 0, 0, 0, 0, 0, 0, 0, 0, 0, 0, 0, 0, 0, 0, 0 ,
0, 0, 0, 0, 0, 0, 0, 0, 0, 0, 0, 0, 0, 0, 0, 0, 0, 0, 0, 0, 0, 0, 0, 0 ,
0, 0, 0, 0, 0, 0, 0, 0, 0, 0, 0, 0, 0, 0, 0, 0, 0, 0, 0, 0, 0, 0, 0, 0 ,
0, 0, 0, 0, 0, 0, 0, 0, 0, 0, 0, 0, 0, 0, 0, 0, 0, 0, 0, 0, 0, 0, 0, 0 ,
0, 0, 0, 0, 0, 0, 0, 0, 0, 0, 0, 0, 0, 0, 0, 0, 0, 0, 0, 0, 0, 0, 0, 0 ,
0, 0, 0, 0, 0, 0, 0, 0, 0, 0, 0, 0, 0, 0, 0, 0, 0, 0, 0, 0, 0, 0, 0, 0 ,
0, 0, 0, 0, 0, 0, 0, 0, 0, 0, 0, 0, 0, 0, 0, 0, 0, 0, 0, 0, 0, 0, 0, 0 ,
0, 0, 0, 0, 0, 0, 0, 0, 0, 0, 0, 0, 0, 0, 0, 0, 0, 0, 0, 0, 0, 0, 0, 0 ,
0, 0, 0, 0, 0, 0, 0, 0, 0, 0, 0, 0, 0, 0, 0, 0, 0, 0, 0, 0, 0, 0, 0, 0 ,
0, 0, 0, 0, 0, 0, 0, 0, 0, 0, 0, 0, 0, 0, 0, 0, 0, 0, 0, 0, 0, 0, 0, 0 ,
0, 0, 0, 0, 0, 0, 0, 0, 0, 0, 0, 0, 0, 0, 0, 0, 0, 0, 0, 0, 0, 0, 0, 0 ,
0, 0, 0, 0, 0, 0, 0, 0, 0, 0, 0, 0, 0, 0, 0, 0, 0, 0, 0, 0, 0, 0, 0, 0 ,
0, 0, 0, 0, 0, 0, 0, 0, 0, 0, 0, 0, 0, 0, 0, 0, 0, 0, 0, 0, 0, 0, 0, 0 ,
0, 0, 0, 0, 0, 0, 0, 0, 0, 0, 0, 0, 0, 0, 0, 0, 0, 0, 0, 0, 0, 0, 0, 0 ,
0, 0, 0, 0, 0, 0, 0, 0, 0, 0, 0, 0, 0, 0, 0, 0, 0, 0, 0, 0, 0, 0, 0, 0 ,
0, 0, 0, 0, 0, 0, 0, 0, 0, 0, 0, 0, 0, 0, 0, 0, 0, 0, 0, 0, 0, 0, 0, 0 ,
0, 0, 0, 0, 0, 0, 0, 0, 0, 0, 0, 0, 0, 0, 0, 0, 0, 0, 0, 0, 0, 0, 0, 0 ,
0, 0, 0, 0, 0, 0, 0, 0, 0, 0, 0, 0, 0, 0, 0, 0, 0, 0, 0, 0, 0, 0, 0, 0 ,
0, 0, 0, 0, 0, 0, 0, 0, 0, 0, 0, 0, 0, 0, 0, 0, 0, 0, 0, 0, 0, 0, 0, 0 ,
0, 0, 0, 0, 0, 0, 0, 0, 0, 0, 0, 0, 0, 0, 0, 0, 0, 0, 0, 0, 0, 0, 0, 0 ,
0, 0, 0, 0, 0, 0, 0, 0, 0, 0, 0, 0, 0, 0, 0, 0, 0, 0, 0, 0, 0, 0, 0, 0 ,
0, 0, 0, 0, 0, 0, 0, 0, 0, 0, 0, 0, 0, 0, 0, 0, 0, 0, 0, 0, 0, 0, 0, 0 ,
0, 0, 0, 0, 0, 0, 0, 0, 0, 0, 0, 0, 0, 0, 0, 0, 0, 0, 0, 0, 0, 0, 0, 0 ,
0, 0, 0, 0, 0, 0, 0, 0, 0, 0, 0, 0, 0, 0, 0, 0, 0, 0, 0, 0, 0, 0, 0, 0 ,
0, 0, 0, 0, 0, 0, 0, 0, 0, 0, 0, 0, 0, 0, 0, 0, 0, 0, 0, 0, 0, 0, 0, 0 ,
0, 0, 0, 0, 0, 0, 0, 0, 0, 0, 0, 0, 0, 0, 0, 0, 0, 0, 0, 0, 0, 0, 0, 0 ,
0, 0, 0, 0, 0, 0, 0, 0, 0, 0, 0, 0, 0, 0, 0, 0, 0, 0, 0, 0, 0, 0, 0, 0 ,
0, 0, 0, 0, 0, 0, 0, 0, 0, 0, 0, 0, 0, 0, 0, 0, 0, 0, 0, 0, 0, 0, 0, 0 ,
0, 0, 0, 0, 0, 0, 0, 0, 0, 0, 0, 0, 0, 0, 0, 0, 0, 0, 0, 0, 0, 0, 0, 0 ,
0, 0, 0, 0, 0, 0, 0, 0, 0, 0, 0, 0, 0, 0, 0, 0, 0, 0, 0, 0, 0, 0, 0, 0 ,
0, 0, 0, 0, 0, 0, 0, 0, 0, 0, 0, 0, 0, 0, 0, 0, 0, 0, 0, 0, 0, 0, 0, 0 ,
0, 0, 0, 0, 0, 0, 0, 0, 0, 0, 0, 0, 0, 0, 0, 0, 0, 0, 0, 0, 0, 0, 0, 0 ,
0, 0, 0, 0, 0, 0, 0, 0, 0, 0, 0, 0, 0, 0, 0, 0, 0, 0, 0, 0, 0, 0, 0, 0 ,
0, 0, 0, 0, 0, 0, 0, 0, 0, 0, 0, 0, 0, 0, 0, 0, 0, 0, 0, 0, 0, 0, 0, 0 ,
0, 0, 0, 0, 0, 0, 0, 0, 0, 0, 0, 0, 0, 0, 0, 0, 0, 0, 0, 0, 0, 0, 0, 0 ,
0, 0, 0, 0, 0, 0, 0, 0, 0, 0, 0, 0, 0, 0, 0, 0, 0, 0, 0, 0, 0, 0, 0, 0 ,
0, 0, 0, 0, 0, 0, 0, 0, 0, 0, 0, 0, 0, 0, 0, 0, 0, 0, 0, 0, 0, 0, 0, 0 ,
0, 0, 0, 0, 0, 0, 0, 0, 0, 0, 0, 0, 0, 0, 0, 0, 0, 0, 0, 0, 0, 0, 0, 0 ,
0, 0, 0, 0, 0, 0, 0, 0, 0, 0, 0, 0, 0, 0, 0, 0, 0, 0, 0, 0, 0, 0, 0, 0 ,
0, 0, 0, 0, 0, 0, 0, 0, 0, 0, 0, 0, 0, 0, 0, 0, 0, 0, 0, 0, 0, 0, 0, 0 ,
0, 0, 0, 0, 0, 0, 0, 0, 0, 0, 0, 0, 0, 0, 0, 0, 0, 0, 0, 0, 0, 0, 0, 0 ,
0, 0, 0, 0, 0, 0, 0, 0, 0, 0, 0, 0, 0, 0, 0, 0, 0, 0, 0, 0, 0, 0, 0, 0 ,
0, 0, 0, 0, 0, 0, 0, 0, 0, 0, 0, 0, 0, 0, 0, 0, 0, 0, 0, 0, 0, 0, 0, 0 ,
0, 0, 0, 0, 0, 0, 0, 0, 0, 0, 0, 0, 0, 0, 0, 0, 0, 0, 0, 0, 0, 0, 0, 0 ,
0, 0, 0, 0, 0, 0, 0, 0, 0, 0, 0, 0, 0, 0, 0, 0, 0, 0, 0, 0, 0, 0, 0, 0 ,
0, 0, 0, 0, 0, 0, 0, 0, 0, 0, 0, 0, 0, 0, 0, 0, 0, 0, 0, 0, 0, 0, 0, 0]);

%W_disc W_hosp W_change W_wait
WeightPref=[|
1,1,-2,-2 |
3,1,-1,-2 |
1,2,-3,-2 |
3,3,-1,-2 |
1,1,-2,-1 |
2,1,-1,-1 |
2,1,-2,-3 |
2,2,-3,-1 |
1,1,-2,-1 |
1,2,-2,-2 |
1,3,-2,-3 |
1,2,-1,-3 |
2,2,-1,-3 |
1,2,-1,-2 |
2,3,-3,-3 |
1,3,-1,-1 |
3,2,-3,-1 |
2,2,-2,-1 |
3,3,-1,-1 |
1,2,-2,-1 |
3,2,-3,-2 |
3,3,-1,-3 |
1,1,-1,-3 |
3,3,-2,-2 |
2,3,-3,-3 |
2,3,-2,-2 |
2,2,-3,-3 |
1,1,-2,-3 |
2,2,-2,-2 |
2,3,-3,-3 |
2,3,-3,-1 |
2,1,-2,-1 |
3,1,-3,-2 |
2,3,-2,-3 |
2,2,-3,-1 |
3,2,-2,-1 |
2,2,-2,-1 |
1,3,-2,-1 |
2,1,-1,-1 |
3,2,-2,-2 |];

PrefStudDisc =[|
2, 2, 2, 3, 3, 2, 2, 2, 2, 2, 3, 2 |
3, 2, 3, 2, 3, 3, 2, 3, 3, 3, 3, 3 |
3, 3, 3, 2, 2, 3, 2, 3, 3, 2, 3, 2 |
2, 3, 3, 3, 3, 2, 3, 3, 3, 2, 2, 2 |
3, 2, 3, 3, 2, 2, 2, 2, 2, 3, 2, 3 |
3, 2, 3, 2, 3, 2, 2, 3, 3, 2, 3, 2 |
2, 2, 3, 2, 2, 3, 2, 3, 2, 3, 2, 3 |
2, 2, 3, 3, 2, 2, 3, 3, 3, 2, 3, 2 |
2, 2, 3, 3, 2, 2, 2, 3, 2, 2, 3, 3 |
3, 3, 3, 2, 3, 2, 3, 3, 2, 3, 2, 3 |
2, 2, 3, 2, 3, 2, 3, 2, 2, 3, 3, 2 |
3, 3, 2, 2, 2, 2, 2, 3, 3, 2, 2, 2 |
2, 2, 3, 2, 2, 3, 3, 2, 3, 2, 3, 2 |
2, 3, 2, 2, 2, 2, 3, 3, 2, 2, 3, 3 |
3, 2, 2, 3, 3, 3, 3, 2, 3, 2, 2, 2 |
2, 3, 2, 2, 2, 3, 2, 3, 3, 2, 2, 3 |
3, 2, 3, 2, 3, 2, 2, 3, 3, 2, 2, 3 |
3, 2, 3, 3, 3, 3, 2, 2, 3, 2, 3, 3 |
3, 3, 3, 3, 3, 3, 2, 2, 2, 2, 3, 2 |
2, 3, 3, 2, 2, 3, 2, 3, 2, 3, 3, 2 |
3, 3, 3, 3, 3, 3, 3, 3, 2, 2, 2, 2 |
2, 2, 2, 2, 2, 3, 2, 2, 3, 2, 3, 2 |
2, 3, 2, 3, 2, 2, 3, 3, 3, 3, 3, 3 |
2, 3, 2, 2, 2, 2, 2, 3, 3, 3, 3, 2 |
3, 3, 3, 3, 3, 3, 3, 2, 3, 2, 3, 3 |
3, 3, 3, 3, 3, 2, 2, 2, 2, 2, 2, 3 |
2, 3, 2, 2, 2, 3, 3, 3, 2, 3, 2, 2 |
3, 3, 2, 2, 3, 2, 3, 3, 2, 2, 3, 3 |
3, 2, 3, 3, 2, 2, 3, 3, 2, 3, 2, 3 |
3, 2, 2, 3, 3, 2, 3, 2, 3, 2, 2, 3 |
2, 2, 3, 2, 3, 3, 2, 2, 3, 3, 3, 2 |
2, 2, 2, 2, 2, 2, 3, 2, 2, 3, 2, 3 |
2, 3, 3, 3, 2, 3, 3, 2, 3, 2, 2, 3 |
3, 2, 2, 3, 3, 3, 3, 3, 3, 3, 3, 3 |
3, 3, 3, 2, 3, 2, 2, 3, 2, 2, 3, 3 |
2, 3, 3, 2, 3, 2, 3, 2, 3, 2, 2, 2 |
3, 2, 3, 2, 2, 2, 2, 3, 3, 3, 3, 3 |
3, 3, 3, 3, 3, 3, 2, 3, 3, 2, 2, 2 |
3, 3, 2, 2, 3, 3, 3, 2, 3, 3, 3, 2 |
2, 3, 3, 3, 2, 3, 2, 2, 2, 3, 3, 2 |];

PrefStudHosp =[|
3, 3, 3, 2 |
2, 2, 2, 3 |
2, 2, 3, 3 |
3, 3, 2, 2 |
2, 3, 2, 2 |
2, 3, 3, 3 |
2, 3, 2, 2 |
2, 2, 2, 2 |
3, 2, 3, 3 |
3, 3, 3, 3 |
3, 2, 2, 3 |
2, 3, 3, 3 |
2, 3, 2, 2 |
3, 2, 3, 2 |
2, 3, 3, 3 |
2, 2, 2, 3 |
3, 3, 3, 2 |
2, 2, 3, 3 |
3, 3, 2, 3 |
3, 3, 3, 3 |
2, 3, 3, 2 |
2, 2, 2, 3 |
3, 3, 3, 2 |
3, 2, 2, 3 |
3, 2, 3, 3 |
3, 2, 2, 2 |
2, 2, 3, 3 |
2, 3, 2, 2 |
3, 3, 3, 2 |
2, 3, 2, 2 |
2, 2, 3, 2 |
2, 3, 3, 3 |
2, 2, 2, 2 |
2, 3, 2, 3 |
2, 2, 2, 3 |
3, 2, 3, 2 |
3, 3, 2, 2 |
3, 2, 3, 3 |
2, 2, 3, 2 |
2, 2, 2, 2 |];

ManPref=[1,1,1,1,1,1,1,1,1,1,1,1];

%% Instance features:
%Scalars :40 , 12 , 4 , 24 , 4 , 1
%Occupancy: 0.212644
%Excess: 0
%Busyness: 0.770833
%Density: 0.136364
%Depth: 3
